
        $ From http://www.csplib.org/Problems/prob009/data/helmut.pdf
        $ Problem number 164
        $ Sequence length : 25
        language ESSENCE' 1.0
        letting sizemaster be 540
        letting sizes be sequence(1,7,8,9,10,14,19,34,36,51,58,69,81,83,97,109,111,115,136,149,152,167,183,208,221)
        